NAME: tsp_148
COMMENT: Random TSP instance
TYPE: TSP
DIMENSION: 50
EDGE_WEIGHT_TYPE: EUC_2D
NODE_COORD_SECTION
1 311 599
2 61 58
3 175 586
4 241 690
5 435 755
6 502 975
7 412 318
8 178 273
9 901 390
10 218 294
11 634 367
12 750 479
13 874 714
14 184 543
15 985 707
16 329 721
17 330 694
18 308 328
19 8 94
20 685 70
21 713 53
22 510 233
23 730 750
24 584 614
25 884 633
26 589 587
27 518 583
28 834 289
29 333 401
30 564 954
31 281 680
32 490 326
33 906 987
34 657 556
35 491 108
36 883 444
37 291 781
38 47 502
39 606 482
40 516 215
41 539 567
42 213 945
43 338 375
44 297 681
45 55 165
46 304 886
47 556 808
48 801 880
49 802 315
50 85 610
